p cnf 7230 14
-3754 4442 -4445 0
3754 -4443 0
-4443 4445 0
-2056 -3758 4439 0
2058 -4445 0
-2058 -3760 4440 0
-4442 4443 0
-4444 4445 0
3760 -4445 0
-4441 4444 0
-4440 4441 0
3766 -4447 0
4438 -4439 0
-4438 4439 0
